(set-logic BV) (define-fun origCir ((n80 Bool) (n95 Bool) (n99 Bool) (n108 Bool) (n103 Bool) (n110 Bool)) Bool (and (and (and (and n108 n99) n103) (and n95 n80)) n110)) (synth-fun skel ((n80 Bool) (n95 Bool) (n99 Bool) (n108 Bool) (n103 Bool) (n110 Bool)) Bool) (declare-var n80 Bool) (declare-var n95 Bool) (declare-var n99 Bool) (declare-var n108 Bool) (declare-var n103 Bool) (declare-var n110 Bool) (constraint (= (origCir n80 n95 n99 n108 n103 n110) (skel n80 n95 n99 n108 n103 n110))) (check-synth)
